NAME : S-U-8-2.2255.tour
COMMENT : Length = 2255
COMMENT : Found by LKH [Keld Helsgaun] Thu May 17 23:18:23 2018
TYPE : TOUR
DIMENSION : 31
TOUR_SECTION
1
28
20
25
17
8
9
13
6
15
10
7
4
31
22
23
30
18
19
21
27
2
16
3
11
12
14
5
24
26
29
-1
EOF
